<number of tasks>
20

<cycle time>
1000

<order strength>
0,5


<task times>
1 183
2 79
3 257
4 137
5 185
6 230
7 145
8 142
9 218
10 107
11 47
12 219
13 98
14 106
15 92
16 210
17 161
18 80
19 21
20 55

<precedence relations>
1,5
2,7
3,6
3,7
4,6
4,7
5,8
6,9
6,11
7,9
7,10
7,11
8,12
9,13
9,20
10,13
11,13
12,16
13,14
13,15
13,17
14,18
15,19
16,20

<end>
